# Solution for model MTZ_CVRP
# Objective value = 6.4021159087976082e+02
C0 0
C1 0
C2 0
C3 0
C4 0
C5 0
C6 0
C7 0
C8 0
C9 0
C10 0
C11 0
C12 0
C13 0
C14 0
C15 0
C16 0
C17 0
C18 0
C19 0
C20 0
C21 0
C22 0
C23 0
C24 0
C25 0
C26 1
C27 0
C28 0
C29 0
C30 0
C31 0
C32 0
C33 0
C34 0
C35 0
C36 0
C37 0
C38 0
C39 0
C40 0
C41 0
C42 0
C43 0
C44 0
C45 0
C46 0
C47 0
C48 0
C49 0
C50 0
C51 0
C52 1
C53 0
C54 0
C55 0
C56 0
C57 0
C58 0
C59 0
C60 0
C61 0
C62 0
C63 0
C64 0
C65 0
C66 0
C67 0
C68 0
C69 0
C70 0
C71 0
C72 0
C73 0
C74 0
C75 0
C76 0
C77 0
C78 0
C79 0
C80 0
C81 0
C82 0
C83 0
C84 0
C85 0
C86 0
C87 0
C88 0
C89 0
C90 0
C91 0
C92 0
C93 0
C94 0
C95 0
C96 0
C97 0
C98 0
C99 0
C100 0
C101 0
C102 0
C103 0
C104 0
C105 0
C106 0
C107 0
C108 0
C109 0
C110 0
C111 0
C112 0
C113 0
C114 0
C115 0
C116 0
C117 0
C118 0
C119 0
C120 0
C121 0
C122 0
C123 0
C124 0
C125 0
C126 0
C127 0
C128 0
C129 0
C130 0
C131 0
C132 0
C133 0
C134 0
C135 0
C136 0
C137 0
C138 0
C139 0
C140 0
C141 0
C142 0
C143 0
C144 0
C145 0
C146 0
C147 0
C148 1
C149 0
C150 0
C151 0
C152 0
C153 0
C154 0
C155 0
C156 0
C157 0
C158 0
C159 0
C160 0
C161 0
C162 0
C163 0
C164 0
C165 0
C166 0
C167 1
C168 0
C169 0
C170 0
C171 0
C172 0
C173 0
C174 0
C175 0
C176 0
C177 0
C178 0
C179 0
C180 0
C181 0
C182 0
C183 0
C184 0
C185 0
C186 0
C187 0
C188 0
C189 0
C190 0
C191 0
C192 0
C193 0
C194 0
C195 0
C196 0
C197 0
C198 0
C199 0
C200 0
C201 0
C202 0
C203 0
C204 0
C205 0
C206 0
C207 0
C208 0
C209 0
C210 0
C211 0
C212 0
C213 0
C214 0
C215 0
C216 0
C217 0
C218 0
C219 0
C220 0
C221 0
C222 0
C223 0
C224 0
C225 0
C226 0
C227 0
C228 0
C229 0
C230 0
C231 0
C232 0
C233 0
C234 0
C235 0
C236 0
C237 0
C238 0
C239 0
C240 0
C241 0
C242 0
C243 0
C244 0
C245 0
C246 0
C247 0
C248 0
C249 0
C250 0
C251 0
C252 0
C253 1
C254 0
C255 0
C256 0
C257 0
C258 0
C259 0
C260 0
C261 0
C262 0
C263 0
C264 0
C265 0
C266 0
C267 0
C268 0
C269 0
C270 0
C271 0
C272 0
C273 0
C274 0
C275 0
C276 0
C277 0
C278 0
C279 0
C280 0
C281 0
C282 0
C283 1
C284 0
C285 0
C286 0
C287 0
C288 0
C289 0
C290 0
C291 0
C292 0
C293 0
C294 0
C295 0
C296 0
C297 0
C298 0
C299 0
C300 0
C301 0
C302 0
C303 0
C304 0
C305 0
C306 0
C307 0
C308 0
C309 0
C310 0
C311 0
C312 0
C313 0
C314 0
C315 0
C316 0
C317 0
C318 0
C319 0
C320 0
C321 0
C322 0
C323 0
C324 0
C325 0
C326 0
C327 0
C328 0
C329 0
C330 0
C331 0
C332 0
C333 0
C334 0
C335 0
C336 0
C337 0
C338 0
C339 0
C340 0
C341 0
C342 0
C343 0
C344 0
C345 0
C346 0
C347 0
C348 0
C349 0
C350 0
C351 0
C352 0
C353 0
C354 0
C355 0
C356 0
C357 0
C358 0
C359 0
C360 0
C361 0
C362 0
C363 0
C364 0
C365 0
C366 0
C367 0
C368 0
C369 0
C370 1
C371 0
C372 1
C373 0
C374 0
C375 0
C376 0
C377 0
C378 0
C379 0
C380 0
C381 0
C382 0
C383 0
C384 0
C385 0
C386 0
C387 0
C388 0
C389 0
C390 0
C391 0
C392 0
C393 0
C394 0
C395 0
C396 0
C397 0
C398 0
C399 0
C400 0
C401 0
C402 0
C403 0
C404 0
C405 0
C406 0
C407 0
C408 0
C409 0
C410 0
C411 0
C412 0
C413 0
C414 0
C415 0
C416 0
C417 0
C418 0
C419 0
C420 0
C421 0
C422 0
C423 0
C424 0
C425 0
C426 0
C427 0
C428 0
C429 0
C430 0
C431 0
C432 0
C433 0
C434 0
C435 0
C436 0
C437 0
C438 0
C439 0
C440 0
C441 0
C442 0
C443 1
C444 1
C445 0
C446 0
C447 0
C448 0
C449 0
C450 0
C451 0
C452 0
C453 0
C454 0
C455 0
C456 0
C457 0
C458 0
C459 0
C460 0
C461 0
C462 0
C463 0
C464 0
C465 0
C466 0
C467 0
C468 0
C469 0
C470 0
C471 0
C472 0
C473 0
C474 0
C475 0
C476 0
C477 0
C478 0
C479 0
C480 0
C481 0
C482 0
C483 0
C484 0
C485 0
C486 0
C487 0
C488 0
C489 0
C490 0
C491 0
C492 0
C493 0
C494 0
C495 0
C496 0
C497 0
C498 0
C499 0
C500 0
C501 0
C502 0
C503 0
C504 0
C505 0
C506 0
C507 0
C508 0
C509 0
C510 0
C511 0
C512 0
C513 0
C514 0
C515 0
C516 0
C517 0
C518 0
C519 0
C520 0
C521 0
C522 0
C523 0
C524 0
C525 0
C526 0
C527 0
C528 0
C529 0
C530 0
C531 0
C532 0
C533 0
C534 0
C535 0
C536 0
C537 0
C538 0
C539 0
C540 0
C541 0
C542 0
C543 0
C544 1
C545 0
C546 0
C547 0
C548 0
C549 0
C550 0
C551 0
C552 0
C553 0
C554 0
C555 0
C556 0
C557 0
C558 0
C559 0
C560 0
C561 0
C562 0
C563 0
C564 0
C565 0
C566 0
C567 0
C568 1
C569 0
C570 0
C571 0
C572 0
C573 0
C574 0
C575 0
C576 0
C577 0
C578 0
C579 0
C580 0
C581 0
C582 0
C583 0
C584 0
C585 0
C586 0
C587 0
C588 0
C589 0
C590 0
C591 0
C592 0
C593 0
C594 0
C595 0
C596 0
C597 0
C598 0
C599 0
C600 0
C601 0
C602 0
C603 0
C604 0
C605 0
C606 0
C607 0
C608 0
C609 0
C610 0
C611 0
C612 0
C613 0
C614 0
C615 0
C616 0
C617 0
C618 0
C619 0
C620 0
C621 0
C622 0
C623 0
C624 0
C625 0
C626 0
C627 0
C628 0
C629 0
C630 0
C631 0
C632 0
C633 0
C634 0
C635 0
C636 0
C637 0
C638 0
C639 0
C640 0
C641 0
C642 0
C643 0
C644 0
C645 0
C646 0
C647 0
C648 0
C649 0
C650 0
C651 0
C652 0
C653 0
C654 0
C655 0
C656 0
C657 0
C658 0
C659 0
C660 0
C661 0
C662 0
C663 0
C664 0
C665 0
C666 0
C667 1
C668 0
C669 0
C670 0
C671 0
C672 0
C673 0
C674 1
C675 0
C676 0
C677 0
C678 0
C679 0
C680 0
C681 0
C682 0
C683 0
C684 0
C685 0
C686 0
C687 0
C688 0
C689 0
C690 0
C691 0
C692 0
C693 0
C694 0
C695 0
C696 0
C697 0
C698 0
C699 0
C700 0
C701 0
C702 0
C703 0
C704 0
C705 0
C706 0
C707 0
C708 0
C709 0
C710 0
C711 0
C712 0
C713 0
C714 0
C715 0
C716 0
C717 0
C718 0
C719 0
C720 0
C721 0
C722 0
C723 0
C724 0
C725 0
C726 0
C727 0
C728 0
C729 0
C730 0
C731 0
C732 0
C733 0
C734 0
C735 0
C736 0
C737 0
C738 0
C739 0
C740 0
C741 0
C742 0
C743 0
C744 0
C745 0
C746 0
C747 0
C748 0
C749 0
C750 0
C751 0
C752 0
C753 1
C754 0
C755 0
C756 0
C757 0
C758 0
C759 1
C760 0
C761 0
C762 0
C763 0
C764 0
C765 0
C766 0
C767 0
C768 0
C769 0
C770 0
C771 0
C772 0
C773 0
C774 0
C775 0
C776 0
C777 0
C778 0
C779 0
C780 0
C781 0
C782 0
C783 0
C784 0
C785 0
C786 0
C787 0
C788 0
C789 0
C790 0
C791 0
C792 0
C793 0
C794 0
C795 0
C796 0
C797 0
C798 0
C799 0
C800 0
C801 0
C802 0
C803 0
C804 0
C805 0
C806 0
C807 0
C808 1
C809 1
C810 0
C811 0
C812 0
C813 0
C814 0
C815 0
C816 0
C817 0
C818 0
C819 0
C820 0
C821 0
C822 0
C823 0
C824 0
C825 0
C826 0
C827 0
C828 0
C829 0
C830 0
C831 0
C832 0
C833 0
C834 0
C835 0
C836 0
C837 0
C838 0
C839 0
C840 0
C841 0
C842 0
C843 0
C844 0
C845 0
C846 0
C847 0
C848 0
C849 0
C850 0
C851 0
C852 0
C853 0
C854 0
C855 0
C856 0
C857 0
C858 0
C859 0
C860 0
C861 0
C862 0
C863 0
C864 0
C865 0
C866 0
C867 0
C868 0
C869 0
C870 0
C871 0
C872 0
C873 0
C874 0
C875 0
C876 0
C877 0
C878 0
C879 0
C880 0
C881 0
C882 0
C883 0
C884 0
C885 0
C886 0
C887 0
C888 0
C889 1
C890 0
C891 0
C892 0
C893 0
C894 0
C895 0
C896 0
C897 0
C898 0
C899 0
C900 0
C901 0
C902 0
C903 0
C904 0
C905 1
C906 0
C907 0
C908 0
C909 0
C910 0
C911 0
C912 0
C913 0
C914 0
C915 0
C916 0
C917 0
C918 0
C919 0
C920 0
C921 0
C922 0
C923 0
C924 0
C925 0
C926 0
C927 0
C928 0
C929 0
C930 0
C931 0
C932 0
C933 0
C934 0
C935 0
C936 0
C937 0
C938 0
C939 0
C940 0
C941 0
C942 0
C943 0
C944 0
C945 0
C946 0
C947 0
C948 0
C949 0
C950 0
C951 0
C952 0
C953 0
C954 0
C955 0
C956 0
C957 0
C958 0
C959 0
C960 0
C961 0
C962 0
C963 0
C964 0
C965 0
C966 0
C967 0
C968 0
C969 0
C970 0
C971 0
C972 0
C973 0
C974 0
C975 0
C976 1
C977 0
C978 0
C979 0
C980 0
C981 0
C982 0
C983 0
C984 0
C985 0
C986 0
C987 0
C988 0
C989 0
C990 0
C991 0
C992 0
C993 0
C994 0
C995 0
C996 0
C997 0
C998 0
C999 0
C1000 0
C1001 0
C1002 0
C1003 0
C1004 0
C1005 0
C1006 1
C1007 0
C1008 0
C1009 0
C1010 0
C1011 0
C1012 0
C1013 0
C1014 0
C1015 0
C1016 0
C1017 0
C1018 0
C1019 0
C1020 0
C1021 0
C1022 0
C1023 0
C1024 0
C1025 0
C1026 0
C1027 0
C1028 0
C1029 0
C1030 0
C1031 0
C1032 0
C1033 0
C1034 0
C1035 0
C1036 0
C1037 0
C1038 0
C1039 0
C1040 0
C1041 0
C1042 0
C1043 0
C1044 0
C1045 0
C1046 0
C1047 0
C1048 0
C1049 0
C1050 0
C1051 0
C1052 1
C1053 0
C1054 0
C1055 0
C1056 0
C1057 0
C1058 0
C1059 0
C1060 0
C1061 0
C1062 0
C1063 0
C1064 0
C1065 0
C1066 0
C1067 0
C1068 0
C1069 0
C1070 0
C1071 0
C1072 0
C1073 0
C1074 0
C1075 0
C1076 0
C1077 0
C1078 0
C1079 0
C1080 0
C1081 0
C1082 0
C1083 0
C1084 0
C1085 0
C1086 0
C1087 0
C1088 0
C1089 0
C1090 0
C1091 0
C1092 0
C1093 0
C1094 0
C1095 1
C1096 0
C1097 0
C1098 0
C1099 0
C1100 0
C1101 0
C1102 0
C1103 0
C1104 0
C1105 0
C1106 0
C1107 0
C1108 0
C1109 0
C1110 0
C1111 0
C1112 0
C1113 0
C1114 0
C1115 0
C1116 0
C1117 0
C1118 0
C1119 0
C1120 0
C1121 0
C1122 0
C1123 0
C1124 0
C1125 0
C1126 0
C1127 0
C1128 0
C1129 0
C1130 0
C1131 0
C1132 0
C1133 0
C1134 0
C1135 0
C1136 0
C1137 0
C1138 0
C1139 0
C1140 0
C1141 0
C1142 0
C1143 0
C1144 0
C1145 0
C1146 0
C1147 1
C1148 0
C1149 0
C1150 0
C1151 0
C1152 0
C1153 0
C1154 0
C1155 0
C1156 0
C1157 0
C1158 0
C1159 0
C1160 0
C1161 0
C1162 0
C1163 0
C1164 0
C1165 0
C1166 0
C1167 0
C1168 0
C1169 0
C1170 0
C1171 0
C1172 0
C1173 0
C1174 0
C1175 0
C1176 0
C1177 0
C1178 0
C1179 0
C1180 0
C1181 0
C1182 0
C1183 0
C1184 0
C1185 0
C1186 0
C1187 0
C1188 0
C1189 0
C1190 0
C1191 0
C1192 0
C1193 0
C1194 0
C1195 0
C1196 0
C1197 0
C1198 0
C1199 0
C1200 0
C1201 1
C1202 0
C1203 0
C1204 0
C1205 0
C1206 0
C1207 0
C1208 0
C1209 0
C1210 0
C1211 0
C1212 0
C1213 0
C1214 0
C1215 0
C1216 0
C1217 0
C1218 0
C1219 0
C1220 0
C1221 0
C1222 0
C1223 0
C1224 0
C1225 0
C1226 0
C1227 0
C1228 0
C1229 0
C1230 0
C1231 0
C1232 0
C1233 0
C1234 0
C1235 0
C1236 0
C1237 0
C1238 0
C1239 0
C1240 0
C1241 0
C1242 0
C1243 0
C1244 0
C1245 0
C1246 0
C1247 0
C1248 0
C1249 0
C1250 0
C1251 0
C1252 0
C1253 0
C1254 0
C1255 0
C1256 0
C1257 0
C1258 0
C1259 0
C1260 0
C1261 0
C1262 0
C1263 0
C1264 0
C1265 0
C1266 1
C1267 0
C1268 0
C1269 0
C1270 0
C1271 0
C1272 0
C1273 0
C1274 0
C1275 0
C1276 0
C1277 0
C1278 0
C1279 0
C1280 0
C1281 0
C1282 0
C1283 0
C1284 0
C1285 0
C1286 0
C1287 0
C1288 0
C1289 0
C1290 0
C1291 0
C1292 0
C1293 0
C1294 0
C1295 0
C1296 0
C1297 0
C1298 0
C1299 0
C1300 0
C1301 0
C1302 1
C1303 0
C1304 0
C1305 0
C1306 0
C1307 0
C1308 0
C1309 0
C1310 0
C1311 0
C1312 0
C1313 0
C1314 0
C1315 0
C1316 0
C1317 0
C1318 0
C1319 0
C1320 0
C1321 0
C1322 0
C1323 0
C1324 0
C1325 0
C1326 0
C1327 0
C1328 0
C1329 0
C1330 0
C1331 0
C1332 0
C1333 0
C1334 0
C1335 0
C1336 1
C1337 0
C1338 1
C1339 0
C1340 0
C1341 0
C1342 0
C1343 0
C1344 0
C1345 0
C1346 0
C1347 0
C1348 0
C1349 0
C1350 0
C1351 0
C1352 0
C1353 0
C1354 0
C1355 0
C1356 0
C1357 0
C1358 0
C1359 0
C1360 0
C1361 0
C1362 0
C1363 0
C1364 0
C1365 0
C1366 0
C1367 0
C1368 0
C1369 0
C1370 0
C1371 0
C1372 0
C1373 0
C1374 0
C1375 0
C1376 0
C1377 0
C1378 0
C1379 0
C1380 0
C1381 0
C1382 0
C1383 0
C1384 0
C1385 0
C1386 0
C1387 0
C1388 0
C1389 0
C1390 0
C1391 0
C1392 0
C1393 0
C1394 0
C1395 0
C1396 0
C1397 0
C1398 0
C1399 0
C1400 0
C1401 0
C1402 0
C1403 0
C1404 0
C1405 0
C1406 0
C1407 0
C1408 0
C1409 0
C1410 0
C1411 0
C1412 0
C1413 0
C1414 0
C1415 0
C1416 0
C1417 0
C1418 0
C1419 0
C1420 0
C1421 0
C1422 1
C1423 0
C1424 0
C1425 0
C1426 0
C1427 0
C1428 0
C1429 0
C1430 0
C1431 0
C1432 0
C1433 0
C1434 0
C1435 0
C1436 1
C1437 0
C1438 0
C1439 0
C1440 0
C1441 0
C1442 0
C1443 0
C1444 0
C1445 0
C1446 0
C1447 0
C1448 0
C1449 0
C1450 0
C1451 0
C1452 0
C1453 0
C1454 0
C1455 0
C1456 0
C1457 0
C1458 0
C1459 0
C1460 0
C1461 0
C1462 0
C1463 0
C1464 0
C1465 0
C1466 0
C1467 0
C1468 0
C1469 0
C1470 0
C1471 0
C1472 0
C1473 0
C1474 0
C1475 0
C1476 0
C1477 0
C1478 0
C1479 0
C1480 0
C1481 0
C1482 0
C1483 0
C1484 0
C1485 0
C1486 0
C1487 0
C1488 0
C1489 0
C1490 0
C1491 0
C1492 0
C1493 0
C1494 0
C1495 0
C1496 0
C1497 0
C1498 0
C1499 0
C1500 0
C1501 0
C1502 0
C1503 0
C1504 0
C1505 0
C1506 0
C1507 0
C1508 0
C1509 0
C1510 0
C1511 0
C1512 0
C1513 0
C1514 0
C1515 0
C1516 0
C1517 0
C1518 0
C1519 0
C1520 0
C1521 0
C1522 0
C1523 0
C1524 1
C1525 0
C1526 0
C1527 0
C1528 0
C1529 0
C1530 0
C1531 0
C1532 0
C1533 0
C1534 0
C1535 0
C1536 0
C1537 0
C1538 0
C1539 0
C1540 0
C1541 0
C1542 0
C1543 0
C1544 0
C1545 0
C1546 0
C1547 0
C1548 0
C1549 1
C1550 0
C1551 0
C1552 0
C1553 0
C1554 0
C1555 0
C1556 0
C1557 0
C1558 0
C1559 0
C1560 0
C1561 0
C1562 0
C1563 0
C1564 0
C1565 0
C1566 0
C1567 0
C1568 0
C1569 0
C1570 0
C1571 0
C1572 0
C1573 0
C1574 0
C1575 0
C1576 0
C1577 0
C1578 0
C1579 0
C1580 0
C1581 0
C1582 0
C1583 0
C1584 0
C1585 0
C1586 0
C1587 0
C1588 0
C1589 0
C1590 0
C1591 1
C1592 0
C1593 0
C1594 0
C1595 0
C1596 0
C1597 0
C1598 0
C1599 0
C1600 0
C1601 0
C1602 0
C1603 0
C1604 0
C1605 0
C1606 0
C1607 0
C1608 0
C1609 0
C1610 0
C1611 0
C1612 0
C1613 0
C1614 0
C1615 0
C1616 0
C1617 0
C1618 0
C1619 0
C1620 0
C1621 0
C1622 0
C1623 0
C1624 0
C1625 0
C1626 0
C1627 0
C1628 0
C1629 0
C1630 1
C1631 0
C1632 0
C1633 0
C1634 0
C1635 0
C1636 0
C1637 0
C1638 0
C1639 0
C1640 0
C1641 0
C1642 0
C1643 0
C1644 0
C1645 0
C1646 0
C1647 0
C1648 0
C1649 0
C1650 0
C1651 0
C1652 0
C1653 0
C1654 0
C1655 0
C1656 0
C1657 0
C1658 0
C1659 0
C1660 0
C1661 0
C1662 0
C1663 0
C1664 0
C1665 0
C1666 0
C1667 0
C1668 0
C1669 0
C1670 0
C1671 0
C1672 0
C1673 0
C1674 0
C1675 0
C1676 0
C1677 0
C1678 0
C1679 0
C1680 1
C1681 0
C1682 0
C1683 0
C1684 0
C1685 0
C1686 0
C1687 0
C1688 0
C1689 0
C1690 0
C1691 0
C1692 0
C1693 0
C1694 0
C1695 0
C1696 0
C1697 0
C1698 0
C1699 0
C1700 0
C1701 0
C1702 0
C1703 0
C1704 0
C1705 0
C1706 0
C1707 0
C1708 0
C1709 0
C1710 0
C1711 1
C1712 0
C1713 0
C1714 0
C1715 0
C1716 0
C1717 0
C1718 0
C1719 0
C1720 0
C1721 0
C1722 0
C1723 0
C1724 0
C1725 0
C1726 0
C1727 0
C1728 0
C1729 0
C1730 0
C1731 0
C1732 0
C1733 0
C1734 0
C1735 0
C1736 0
C1737 0
C1738 0
C1739 0
C1740 0
C1741 0
C1742 0
C1743 0
C1744 0
C1745 0
C1746 0
C1747 0
C1748 0
C1749 0
C1750 0
C1751 0
C1752 0
C1753 0
C1754 0
C1755 0
C1756 0
C1757 1
C1758 0
C1759 0
C1760 0
C1761 0
C1762 0
C1763 0
C1764 0
C1765 0
C1766 0
C1767 0
C1768 0
C1769 0
C1770 0
C1771 0
C1772 0
C1773 0
C1774 0
C1775 0
C1776 0
C1777 0
C1778 0
C1779 0
C1780 0
C1781 0
C1782 0
C1783 0
C1784 0
C1785 0
C1786 0
C1787 0
C1788 0
C1789 0
C1790 0
C1791 0
C1792 0
C1793 0
C1794 0
C1795 0
C1796 0
C1797 0
C1798 0
C1799 0
C1800 0
C1801 0
C1802 0
C1803 0
C1804 0
C1805 0
C1806 0
C1807 0
C1808 0
C1809 0
C1810 0
C1811 0
C1812 0
C1813 0
C1814 0
C1815 0
C1816 0
C1817 0
C1818 0
C1819 1
C1820 0
C1821 0
C1822 0
C1823 0
C1824 0
C1825 0
C1826 0
C1827 0
C1828 0
C1829 0
C1830 0
C1831 0
C1832 0
C1833 0
C1834 0
C1835 0
C1836 0
C1837 0
C1838 0
C1839 0
C1840 0
C1841 0
C1842 0
C1843 0
C1844 0
C1845 0
C1846 0
C1847 0
C1848 0
C1849 0
C1850 0
C1851 0
C1852 0
C1853 0
C1854 0
C1855 1
C1856 0
C1857 0
C1858 0
C1859 0
C1860 0
C1861 0
C1862 0
C1863 0
C1864 0
C1865 0
C1866 0
C1867 0
C1868 0
C1869 0
C1870 0
C1871 0
C1872 0
C1873 0
C1874 0
C1875 0
C1876 0
C1877 0
C1878 0
C1879 0
C1880 0
C1881 0
C1882 0
C1883 0
C1884 0
C1885 0
C1886 0
C1887 0
C1888 0
C1889 0
C1890 0
C1891 0
C1892 0
C1893 0
C1894 0
C1895 0
C1896 0
C1897 0
C1898 0
C1899 0
C1900 0
C1901 0
C1902 0
C1903 0
C1904 0
C1905 0
C1906 0
C1907 0
C1908 1
C1909 0
C1910 0
C1911 0
C1912 0
C1913 0
C1914 0
C1915 0
C1916 0
C1917 0
C1918 0
C1919 0
C1920 0
C1921 0
C1922 0
C1923 0
C1924 0
C1925 0
C1926 0
C1927 0
C1928 0
C1929 0
C1930 0
C1931 0
C1932 0
C1933 0
C1934 0
C1935 0
C1936 0
C1937 0
C1938 0
C1939 0
C1940 0
C1941 1
C1942 0
C1943 0
C1944 0
C1945 0
C1946 0
C1947 0
C1948 0
C1949 0
C1950 0
C1951 0
C1952 0
C1953 0
C1954 0
C1955 0
C1956 0
C1957 0
C1958 0
C1959 0
C1960 0
C1961 0
C1962 0
C1963 0
C1964 0
C1965 0
C1966 0
C1967 0
C1968 0
C1969 0
C1970 0
C1971 0
C1972 0
C1973 0
C1974 0
C1975 0
C1976 0
C1977 0
C1978 0
C1979 0
C1980 0
C1981 0
C1982 0
C1983 0
C1984 0
C1985 0
C1986 0
C1987 1
C1988 0
C1989 0
C1990 0
C1991 0
C1992 0
C1993 0
C1994 0
C1995 0
C1996 0
C1997 0
C1998 0
C1999 0
C2000 0
C2001 0
C2002 0
C2003 0
C2004 0
C2005 0
C2006 0
C2007 0
C2008 0
C2009 0
C2010 0
C2011 0
C2012 0
C2013 0
C2014 0
C2015 0
C2016 0
C2017 0
C2018 0
C2019 0
C2020 1
C2021 0
C2022 0
C2023 0
C2024 0
C2025 0
C2026 0
C2027 0
C2028 0
C2029 0
C2030 0
C2031 0
C2032 0
C2033 0
C2034 0
C2035 0
C2036 0
C2037 0
C2038 0
C2039 0
C2040 0
C2041 0
C2042 0
C2043 0
C2044 0
C2045 0
C2046 0
C2047 0
C2048 0
C2049 0
C2050 0
C2051 0
C2052 0
C2053 0
C2054 0
C2055 0
C2056 0
C2057 0
C2058 0
C2059 0
C2060 0
C2061 0
C2062 0
C2063 0
C2064 0
C2065 0
C2066 0
C2067 0
C2068 0
C2069 0
C2070 0
C2071 0
C2072 0
C2073 0
C2074 0
C2075 0
C2076 0
C2077 0
C2078 0
C2079 1
C2080 0
C2081 0
C2082 0
C2083 0
C2084 0
C2085 0
C2086 0
C2087 0
C2088 0
C2089 0
C2090 1
C2091 0
C2092 0
C2093 0
C2094 0
C2095 0
C2096 0
C2097 0
C2098 0
C2099 0
C2100 0
C2101 0
C2102 0
C2103 0
C2104 0
C2105 0
C2106 0
C2107 0
C2108 0
C2109 0
C2110 0
C2111 0
C2112 0
C2113 0
C2114 0
C2115 0
C2116 0
C2117 0
C2118 0
C2119 0
C2120 0
C2121 0
C2122 0
C2123 0
C2124 0
C2125 0
C2126 0
C2127 0
C2128 1
C2129 0
C2130 0
C2131 0
C2132 0
C2133 0
C2134 0
C2135 0
C2136 0
C2137 0
C2138 0
C2139 0
C2140 0
C2141 0
C2142 0
C2143 0
C2144 0
C2145 0
C2146 0
C2147 0
C2148 0
C2149 0
C2150 0
C2151 0
C2152 0
C2153 1
C2154 0
C2155 0
C2156 0
C2157 0
C2158 0
C2159 0
C2160 0
C2161 0
C2162 0
C2163 0
C2164 0
C2165 0
C2166 0
C2167 0
C2168 0
C2169 0
C2170 0
C2171 0
C2172 0
C2173 0
C2174 0
C2175 0
C2176 0
C2177 0
C2178 0
C2179 0
C2180 0
C2181 0
C2182 0
C2183 0
C2184 0
C2185 0
C2186 0
C2187 0
C2188 0
C2189 0
C2190 0
C2191 0
C2192 0
C2193 0
C2194 0
C2195 0
C2196 0
C2197 0
C2198 0
C2199 0
C2200 0
C2201 0
C2202 0
C2203 0
C2204 0
C2205 0
C2206 0
C2207 0
C2208 0
C2209 0
C2210 0
C2211 0
C2212 0
C2213 1
C2214 0
C2215 0
C2216 0
C2217 0
C2218 0
C2219 0
C2220 0
C2221 0
C2222 0
C2223 0
C2224 0
C2225 0
C2226 0
C2227 0
C2228 0
C2229 1
C2230 0
C2231 0
C2232 0
C2233 0
C2234 0
C2235 0
C2236 0
C2237 0
C2238 0
C2239 0
C2240 0
C2241 0
C2242 0
C2243 0
C2244 0
C2245 0
C2246 0
C2247 0
C2248 0
C2249 0
C2250 0
C2251 0
C2252 0
C2253 0
C2254 0
C2255 0
C2256 0
C2257 0
C2258 0
C2259 0
C2260 0
C2261 0
C2262 0
C2263 0
C2264 0
C2265 0
C2266 0
C2267 0
C2268 0
C2269 0
C2270 0
C2271 0
C2272 0
C2273 0
C2274 0
C2275 0
C2276 1
C2277 0
C2278 0
C2279 0
C2280 0
C2281 0
C2282 0
C2283 0
C2284 0
C2285 0
C2286 0
C2287 0
C2288 0
C2289 0
C2290 0
C2291 0
C2292 0
C2293 0
C2294 0
C2295 0
C2296 0
C2297 0
C2298 0
C2299 0
C2300 0
C2301 0
C2302 0
C2303 0
C2304 0
C2305 0
C2306 0
C2307 0
C2308 0
C2309 0
C2310 0
C2311 0
C2312 0
C2313 0
C2314 0
C2315 0
C2316 0
C2317 0
C2318 0
C2319 0
C2320 0
C2321 0
C2322 0
C2323 0
C2324 0
C2325 0
C2326 0
C2327 0
C2328 0
C2329 0
C2330 0
C2331 0
C2332 0
C2333 0
C2334 0
C2335 0
C2336 0
C2337 0
C2338 0
C2339 0
C2340 0
C2341 0
C2342 0
C2343 0
C2344 0
C2345 0
C2346 0
C2347 0
C2348 0
C2349 0
C2350 0
C2351 0
C2352 0
C2353 0
C2354 0
C2355 0
C2356 0
C2357 0
C2358 0
C2359 0
C2360 0
C2361 0
C2362 0
C2363 0
C2364 0
C2365 0
C2366 0
C2367 0
C2368 0
C2369 0
C2370 0
C2371 0
C2372 0
C2373 0
C2374 0
C2375 0
C2376 0
C2377 0
C2378 0
C2379 0
C2380 0
C2381 0
C2382 0
C2383 0
C2384 0
C2385 0
C2386 0
C2387 0
C2388 0
C2389 0
C2390 1
C2391 0
C2392 0
C2393 0
C2394 0
C2395 0
C2396 0
C2397 0
C2398 0
C2399 0
C2400 0
C2401 0
C2402 0
C2403 0
C2404 0
C2405 0
C2406 0
C2407 0
C2408 0
C2409 0
C2410 0
C2411 0
C2412 0
C2413 0
C2414 0
C2415 0
C2416 0
C2417 0
C2418 0
C2419 0
C2420 0
C2421 0
C2422 0
C2423 0
C2424 0
C2425 0
C2426 0
C2427 0
C2428 0
C2429 0
C2430 0
C2431 0
C2432 0
C2433 0
C2434 0
C2435 0
C2436 0
C2437 0
C2438 0
C2439 0
C2440 0
C2441 0
C2442 0
C2443 0
C2444 0
C2445 0
C2446 1
C2447 0
C2448 0
C2449 0
C2450 0
C2451 0
C2452 0
C2453 0
C2454 0
C2455 0
C2456 0
C2457 0
C2458 0
C2459 0
C2460 0
C2461 0
C2462 0
C2463 0
C2464 0
C2465 0
C2466 0
C2467 0
C2468 0
C2469 0
C2470 0
C2471 0
C2472 0
C2473 0
C2474 0
C2475 0
C2476 0
C2477 0
C2478 0
C2479 0
C2480 0
C2481 0
C2482 0
C2483 0
C2484 0
C2485 0
C2486 0
C2487 0
C2488 0
C2489 0
C2490 0
C2491 0
C2492 0
C2493 0
C2494 0
C2495 0
C2496 0
C2497 0
C2498 0
C2499 0
C2500 0
C2501 0
C2502 0
C2503 0
C2504 0
C2505 0
C2506 0
C2507 0
C2508 0
C2509 0
C2510 0
C2511 0
C2512 0
C2513 0
C2514 0
C2515 0
C2516 0
C2517 0
C2518 0
C2519 0
C2520 0
C2521 0
C2522 0
C2523 0
C2524 0
C2525 0
C2526 0
C2527 0
C2528 0
C2529 0
C2530 0
C2531 0
C2532 1
C2533 0
C2534 0
C2535 0
C2536 0
C2537 0
C2538 0
C2539 0
C2540 0
C2541 0
C2542 0
C2543 0
C2544 0
C2545 0
C2546 0
C2547 0
C2548 0
C2549 0
C2550 0
C2551 0
C2552 0
C2553 0
C2554 0
C2555 0
C2556 0
C2557 0
C2558 0
C2559 0
C2560 0
C2561 0
C2562 0
C2563 0
C2564 0
C2565 0
C2566 0
C2567 0
C2568 0
C2569 0
C2570 0
C2571 0
C2572 0
C2573 0
C2574 0
C2575 0
C2576 0
C2577 0
C2578 0
C2579 0
C2580 0
C2581 0
C2582 0
C2583 0
C2584 0
C2585 0
C2586 0
C2587 0
C2588 0
C2589 0
C2590 0
C2591 0
C2592 0
C2593 0
C2594 0
C2595 0
C2596 0
C2597 0
C2598 0
C2599 0
C2600 0
C2601 0
C2602 0
C2603 0
C2604 1
C2605 0
C2606 0
C2607 0
C2608 0
C2609 0
C2610 0
C2611 0
C2612 0
C2613 0
C2614 0
C2615 0
C2616 0
C2617 0
C2618 0
C2619 0
C2620 0
C2621 0
C2622 0
C2623 0
C2624 0
C2625 0
C2626 0
C2627 0
C2628 0
C2629 0
C2630 0
C2631 0
C2632 0
C2633 0
C2634 0
C2635 0
C2636 0
C2637 0
C2638 0
C2639 0
C2640 0
C2641 0
C2642 0
C2643 0
C2644 0
C2645 0
C2646 0
C2647 0
C2648 0
C2649 0
C2650 0
C2651 0
C2652 0
C2653 0
C2654 0
C2655 0
C2656 0
C2657 0
C2658 0
C2659 0
C2660 0
C2661 0
C2662 0
C2663 0
C2664 0
C2665 0
C2666 0
C2667 0
C2668 0
C2669 0
C2670 0
C2671 0
C2672 0
C2673 1
C2674 0
C2675 0
C2676 0
C2677 0
C2678 0
C2679 0
C2680 0
C2681 0
C2682 0
C2683 0
C2684 0
C2685 0
C2686 0
C2687 0
C2688 0
C2689 0
C2690 0
C2691 1
C2692 0
C2693 0
C2694 0
C2695 0
C2696 0
C2697 0
C2698 0
C2699 0
C2700 0
C2701 0
C2702 0
C2703 0
C2704 0
C2705 0
C2706 0
C2707 0
C2708 0
C2709 0
C2710 0
C2711 0
C2712 0
C2713 0
C2714 0
C2715 0
C2716 0
C2717 0
C2718 0
C2719 0
C2720 0
C2721 0
C2722 0
C2723 0
C2724 0
C2725 0
C2726 0
C2727 0
C2728 0
C2729 0
C2730 0
C2731 0
C2732 0
C2733 0
C2734 0
C2735 0
C2736 0
C2737 0
C2738 0
C2739 0
C2740 0
C2741 0
C2742 0
C2743 0
C2744 0
C2745 0
C2746 0
C2747 0
C2748 0
C2749 0
C2750 0
C2751 0
C2752 0
C2753 0
C2754 0
C2755 0
C2756 0
C2757 0
C2758 0
C2759 0
C2760 0
C2761 1
C2762 0
C2763 0
C2764 0
C2765 0
C2766 0
C2767 0
C2768 0
C2769 0
C2770 0
C2771 0
C2772 0
C2773 0
C2774 0
C2775 0
C2776 0
C2777 0
C2778 0
C2779 0
C2780 0
C2781 0
C2782 0
C2783 0
C2784 0
C2785 0
C2786 0
C2787 0
C2788 0
C2789 1
C2790 0
C2791 0
C2792 0
C2793 0
C2794 0
C2795 0
C2796 0
C2797 0
C2798 0
C2799 0
C2800 0
C2801 0
C2802 0
C2803 0
C2804 0
C2805 0
C2806 0
C2807 0
C2808 0
C2809 0
C2810 0
C2811 0
C2812 0
C2813 0
C2814 0
C2815 0
C2816 0
C2817 0
C2818 0
C2819 1
C2820 0
C2821 0
C2822 0
C2823 0
C2824 0
C2825 0
C2826 0
C2827 0
C2828 0
C2829 0
C2830 0
C2831 0
C2832 0
C2833 0
C2834 0
C2835 0
C2836 0
C2837 0
C2838 0
C2839 0
C2840 0
C2841 0
C2842 0
C2843 0
C2844 0
C2845 0
C2846 0
C2847 0
C2848 0
C2849 0
C2850 0
C2851 0
C2852 0
C2853 0
C2854 0
C2855 0
C2856 0
C2857 0
C2858 0
C2859 0
C2860 0
C2861 0
C2862 0
C2863 0
C2864 0
C2865 0
C2866 0
C2867 0
C2868 0
C2869 0
C2870 0
C2871 0
C2872 0
C2873 0
C2874 0
C2875 0
C2876 0
C2877 0
C2878 0
C2879 0
C2880 0
C2881 0
C2882 1
C2883 0
C2884 0
C2885 1
C2886 0
C2887 0
C2888 0
C2889 0
C2890 0
C2891 0
C2892 0
C2893 0
C2894 0
C2895 0
C2896 0
C2897 0
C2898 0
C2899 0
C2900 0
C2901 0
C2902 0
C2903 0
C2904 0
C2905 0
C2906 0
C2907 0
C2908 0
C2909 0
C2910 0
C2911 0
C2912 0
C2913 0
C2914 0
C2915 0
C2916 0
C2917 0
C2918 0
C2919 0
C2920 0
C2921 0
C2922 0
C2923 0
C2924 0
C2925 0
C2926 0
C2927 0
C2928 0
C2929 0
C2930 0
C2931 0
C2932 0
C2933 0
C2934 0
C2935 0
C2936 0
C2937 0
C2938 0
C2939 0
C2940 1
C2941 0
C2942 0
C2943 0
C2944 0
C2945 0
C2946 0
C2947 0
C2948 0
C2949 0
C2950 0
C2951 0
C2952 0
C2953 0
C2954 0
C2955 0
C2956 0
C2957 0
C2958 0
C2959 0
C2960 0
C2961 0
C2962 0
C2963 0
C2964 0
C2965 0
C2966 0
C2967 0
C2968 0
C2969 0
C2970 0
C2971 0
C2972 0
C2973 0
C2974 0
C2975 0
C2976 0
C2977 0
C2978 0
C2979 0
C2980 1
C2981 0
C2982 1
C2983 0
C2984 0
C2985 0
C2986 0
C2987 0
C2988 0
C2989 0
C2990 0
C2991 0
C2992 0
C2993 0
C2994 0
C2995 0
C2996 0
C2997 0
C2998 0
C2999 0
C3000 0
C3001 0
C3002 0
C3003 0
C3004 0
C3005 0
C3006 0
C3007 0
C3008 0
C3009 0
C3010 0
C3011 0
C3012 0
C3013 0
C3014 0
C3015 0
C3016 0
C3017 0
C3018 0
C3019 0
C3020 0
C3021 0
C3022 0
C3023 0
C3024 0
C3025 0
C3026 0
C3027 0
C3028 0
C3029 0
C3030 0
C3031 0
C3032 0
C3033 0
C3034 0
C3035 0
C3036 0
C3037 0
C3038 0
C3039 0
C3040 0
C3041 0
C3042 0
C3043 0
C3044 0
C3045 0
C3046 0
C3047 0
C3048 0
C3049 0
C3050 0
C3051 0
C3052 0
C3053 0
C3054 0
C3055 0
C3056 0
C3057 0
C3058 0
C3059 0
C3060 0
C3061 0
C3062 0
C3063 0
C3064 0
C3065 0
C3066 0
C3067 0
C3068 0
C3069 0
C3070 0
C3071 0
C3072 0
C3073 0
C3074 0
C3075 0
C3076 0
C3077 0
C3078 0
C3079 0
C3080 0
C3081 0
C3082 0
C3083 0
C3084 0
C3085 0
C3086 0
C3087 0
C3088 1
C3089 0
C3090 0
C3091 0
C3092 0
C3093 0
C3094 1
C3095 0
C3096 0
C3097 0
C3098 0
C3099 0
C3100 0
C3101 0
C3102 1
C3103 0
C3104 0
C3105 0
C3106 0
C3107 0
C3108 0
C3109 0
C3110 0
C3111 0
C3112 0
C3113 0
C3114 0
C3115 0
C3116 0
C3117 0
C3118 0
C3119 0
C3120 0
C3121 0
C3122 0
C3123 0
C3124 0
C3125 0
C3126 0
C3127 0
C3128 0
C3129 0
C3130 0
C3131 0
C3132 0
C3133 0
C3134 0
C3135 0
C3136 0
C3137 0
C3138 0
C3139 0
C3140 0
C3141 0
C3142 0
C3143 0
C3144 1
C3145 0
C3146 0
C3147 0
C3148 0
C3149 0
C3150 0
C3151 0
C3152 0
C3153 0
C3154 0
C3155 0
C3156 0
C3157 0
C3158 0
C3159 0
C3160 0
C3161 0
C3162 0
C3163 0
C3164 0
C3165 0
C3166 0
C3167 0
C3168 0
C3169 0
C3170 0
C3171 0
C3172 0
C3173 0
C3174 0
C3175 0
C3176 0
C3177 0
C3178 0
C3179 0
C3180 0
C3181 0
C3182 0
C3183 0
C3184 0
C3185 0
C3186 1
C3187 0
C3188 0
C3189 0
C3190 0
C3191 0
C3192 0
C3193 0
C3194 0
C3195 0
C3196 0
C3197 0
C3198 0
C3199 0
C3200 0
C3201 0
C3202 0
C3203 0
C3204 0
C3205 0
C3206 0
C3207 0
C3208 0
C3209 0
C3210 0
C3211 0
C3212 0
C3213 0
C3214 0
C3215 0
C3216 0
C3217 0
C3218 0
C3219 0
C3220 0
C3221 0
C3222 0
C3223 0
C3224 0
C3225 0
C3226 0
C3227 0
C3228 0
C3229 0
C3230 0
C3231 0
C3232 0
C3233 0
C3234 0
C3235 0
C3236 0
C3237 1
C3238 0
C3239 0
C3240 0
C3241 0
C3242 0
C3243 0
C3244 0
C3245 0
C3246 0
C3247 0
C3248 0
C3249 0
C3250 0
C3251 0
C3252 0
C3253 0
C3254 0
C3255 0
C3256 0
C3257 0
C3258 0
C3259 0
C3260 0
C3261 0
C3262 0
C3263 0
C3264 0
C3265 0
C3266 0
C3267 0
C3268 0
C3269 0
C3270 0
C3271 0
C3272 0
C3273 0
C3274 0
C3275 0
C3276 0
C3277 0
C3278 0
C3279 0
C3280 0
C3281 0
C3282 0
C3283 0
C3284 0
C3285 0
C3286 0
C3287 0
C3288 0
C3289 0
C3290 0
C3291 0
C3292 0
C3293 0
C3294 0
C3295 0
C3296 0
C3297 0
C3298 0
C3299 0
C3300 0
C3301 0
C3302 0
C3303 0
C3304 0
C3305 0
C3306 0
C3307 0
C3308 0
C3309 0
C3310 0
C3311 0
C3312 0
C3313 1
C3314 0
C3315 0
C3316 0
C3317 0
C3318 0
C3319 0
C3320 0
C3321 0
C3322 0
C3323 0
C3324 0
C3325 0
C3326 0
C3327 0
C3328 0
C3329 0
C3330 0
C3331 0
C3332 0
C3333 0
C3334 0
C3335 0
C3336 0
C3337 0
C3338 0
C3339 1
C3340 0
C3341 0
C3342 0
C3343 0
C3344 0
C3345 0
C3346 0
C3347 0
C3348 0
C3349 0
C3350 0
C3351 0
C3352 0
C3353 0
C3354 0
C3355 0
C3356 0
C3357 0
C3358 0
C3359 0
C3360 0
C3361 0
C3362 0
C3363 0
C3364 0
C3365 0
C3366 0
C3367 0
C3368 0
C3369 0
C3370 0
C3371 0
C3372 0
C3373 0
C3374 0
C3375 0
C3376 0
C3377 0
C3378 0
C3379 0
C3380 0
C3381 0
C3382 0
C3383 0
C3384 0
C3385 0
C3386 0
C3387 0
C3388 0
C3389 0
C3390 0
C3391 0
C3392 0
C3393 0
C3394 0
C3395 0
C3396 0
C3397 0
C3398 0
C3399 0
C3400 0
C3401 0
C3402 0
C3403 0
C3404 0
C3405 0
C3406 0
C3407 0
C3408 0
C3409 0
C3410 0
C3411 0
C3412 0
C3413 0
C3414 0
C3415 0
C3416 0
C3417 0
C3418 0
C3419 0
C3420 0
C3421 0
C3422 0
C3423 0
C3424 0
C3425 0
C3426 0
C3427 0
C3428 0
C3429 0
C3430 0
C3431 0
C3432 0
C3433 0
C3434 0
C3435 0
C3436 0
C3437 0
C3438 0
C3439 0
C3440 0
C3441 0
C3442 0
C3443 0
C3444 0
C3445 0
C3446 0
C3447 0
C3448 0
C3449 0
C3450 0
C3451 0
C3452 0
C3453 0
C3454 0
C3455 0
C3456 0
C3457 0
C3458 0
C3459 0
C3460 0
C3461 0
C3462 0
C3463 0
C3464 0
C3465 0
C3466 0
C3467 0
C3468 0
C3469 0
C3470 0
C3471 0
C3472 0
C3473 0
C3474 0
C3475 0
C3476 0
C3477 0
C3478 0
C3479 0
C3480 0
C3481 0
C3482 0
C3483 0
C3484 0
C3485 0
C3486 0
C3487 0
C3488 0
C3489 0
C3490 0
C3491 0
C3492 0
C3493 0
C3494 0
C3495 0
C3496 0
C3497 0
C3498 0
C3499 0
C3500 0
C3501 0
C3502 0
C3503 0
C3504 0
C3505 0
C3506 0
C3507 0
C3508 0
C3509 0
C3510 0
C3511 0
C3512 0
C3513 0
C3514 0
C3515 0
C3516 0
C3517 0
C3518 0
C3519 0
C3520 0
C3521 0
C3522 0
C3523 0
C3524 0
C3525 0
C3526 0
C3527 0
C3528 0
C3529 0
C3530 0
C3531 0
C3532 0
C3533 0
C3534 0
C3535 0
C3536 0
C3537 0
C3538 0
C3539 0
C3540 0
C3541 0
C3542 0
C3543 0
C3544 0
C3545 0
C3546 0
C3547 0
C3548 0
C3549 0
C3550 0
C3551 0
C3552 0
C3553 0
C3554 0
C3555 0
C3556 0
C3557 0
C3558 0
C3559 0
C3560 0
C3561 0
C3562 0
C3563 0
C3564 0
C3565 1
C3566 0
C3567 0
C3568 0
C3569 0
C3570 0
C3571 0
C3572 0
C3573 0
C3574 0
C3575 0
C3576 0
C3577 0
C3578 0
C3579 0
C3580 0
C3581 0
C3582 0
C3583 0
C3584 0
C3585 0
C3586 0
C3587 0
C3588 0
C3589 0
C3590 0
C3591 0
C3592 0
C3593 0
C3594 0
C3595 0
C3596 0
C3597 0
C3598 0
C3599 0
C3600 0
C3601 0
C3602 0
C3603 0
C3604 0
C3605 0
C3606 0
C3607 0
C3608 0
C3609 0
C3610 0
C3611 0
C3612 0
C3613 0
C3614 0
C3615 0
C3616 0
C3617 0
C3618 0
C3619 0
C3620 0
C3621 0
C3622 0
C3623 0
C3624 0
C3625 0
C3626 0
C3627 0
C3628 0
C3629 0
C3630 0
C3631 0
C3632 0
C3633 0
C3634 0
C3635 0
C3636 0
C3637 0
C3638 0
C3639 0
C3640 0
C3641 0
C3642 0
C3643 0
C3644 0
C3645 0
C3646 0
C3647 0
C3648 0
C3649 0
C3650 0
C3651 0
C3652 0
C3653 0
C3654 0
C3655 0
C3656 0
C3657 0
C3658 0
C3659 0
C3660 0
C3661 0
C3662 0
C3663 0
C3664 0
C3665 0
C3666 0
C3667 0
C3668 0
C3669 0
C3670 0
C3671 0
C3672 0
C3673 0
C3674 0
C3675 0
C3676 0
C3677 0
C3678 0
C3679 0
C3680 0
C3681 0
C3682 0
C3683 0
C3684 0
C3685 0
C3686 0
C3687 0
C3688 0
C3689 0
C3690 0
C3691 0
C3692 0
C3693 0
C3694 0
C3695 0
C3696 0
C3697 0
C3698 0
C3699 0
C3700 0
C3701 0
C3702 0
C3703 0
C3704 0
C3705 1
C3706 0
C3707 0
C3708 0
C3709 0
C3710 0
C3711 0
C3712 0
C3713 0
C3714 0
C3715 0
C3716 0
C3717 0
C3718 0
C3719 0
C3720 0
C3721 0
C3722 0
C3723 0
C3724 0
C3725 0
C3726 0
C3727 0
C3728 0
C3729 0
C3730 0
C3731 0
C3732 0
C3733 0
C3734 0
C3735 0
C3736 0
C3737 0
C3738 1
C3739 0
C3740 0
C3741 0
C3742 0
C3743 0
C3744 0
C3745 0
C3746 0
C3747 0
C3748 0
C3749 0
C3750 0
C3751 0
C3752 0
C3753 0
C3754 0
C3755 0
C3756 0
C3757 0
C3758 0
C3759 0
C3760 0
C3761 0
C3762 0
C3763 0
C3764 0
C3765 0
C3766 0
C3767 0
C3768 0
C3769 0
C3770 0
C3771 0
C3772 0
C3773 0
C3774 0
C3775 0
C3776 0
C3777 0
C3778 0
C3779 0
C3780 0
C3781 0
C3782 0
C3783 0
C3784 0
C3785 0
C3786 0
C3787 0
C3788 0
C3789 0
C3790 0
C3791 0
C3792 0
C3793 0
C3794 0
C3795 0
C3796 0
C3797 0
C3798 0
C3799 0
C3800 1
C3801 0
C3802 0
C3803 0
C3804 0
C3805 0
C3806 0
C3807 0
C3808 0
C3809 0
C3810 0
C3811 0
C3812 0
C3813 0
C3814 0
C3815 0
C3816 0
C3817 0
C3818 0
C3819 0
C3820 0
C3821 0
C3822 0
C3823 0
C3824 0
C3825 0
C3826 0
C3827 0
C3828 0
C3829 0
C3830 0
C3831 0
C3832 0
C3833 0
C3834 0
C3835 0
C3836 0
C3837 0
C3838 0
C3839 0
C3840 0
C3841 0
C3842 0
C3843 0
C3844 0
C3845 0
C3846 0
C3847 0
C3848 0
C3849 0
C3850 0
C3851 0
C3852 0
C3853 0
C3854 0
C3855 0
C3856 0
C3857 0
C3858 0
C3859 0
C3860 0
C3861 0
C3862 0
C3863 0
C3864 0
C3865 0
C3866 0
C3867 0
C3868 0
C3869 0
C3870 0
C3871 0
C3872 0
C3873 0
C3874 0
C3875 0
C3876 0
C3877 0
C3878 0
C3879 0
C3880 0
C3881 0
C3882 0
C3883 0
C3884 0
C3885 0
C3886 0
C3887 0
C3888 0
C3889 0
C3890 0
C3891 0
C3892 0
C3893 0
C3894 0
C3895 0
C3896 0
C3897 0
C3898 0
C3899 0
C3900 0
C3901 0
C3902 0
C3903 0
C3904 0
C3905 0
C3906 0
C3907 0
C3908 0
C3909 0
C3910 1
C3911 0
C3912 0
C3913 0
C3914 0
C3915 0
C3916 0
C3917 0
C3918 0
C3919 0
C3920 0
C3921 0
C3922 0
C3923 0
C3924 0
C3925 0
C3926 0
C3927 0
C3928 0
C3929 0
C3930 0
C3931 0
C3932 0
C3933 0
C3934 0
C3935 0
C3936 0
C3937 0
C3938 0
C3939 0
C3940 0
C3941 0
C3942 0
C3943 0
C3944 0
C3945 0
C3946 0
C3947 0
C3948 0
C3949 0
C3950 0
C3951 0
C3952 0
C3953 0
C3954 0
C3955 0
C3956 0
C3957 0
C3958 0
C3959 0
C3960 0
C3961 0
C3962 0
C3963 0
C3964 0
C3965 0
C3966 0
C3967 0
C3968 0
C3969 0
C3970 0
C3971 0
C3972 0
C3973 0
C3974 0
C3975 0
C3976 0
C3977 0
C3978 0
C3979 0
C3980 0
C3981 0
C3982 0
C3983 0
C3984 0
C3985 0
C3986 0
C3987 0
C3988 0
C3989 0
C3990 0
C3991 0
C3992 0
C3993 0
C3994 0
C3995 0
C3996 0
C3997 0
C3998 0
C3999 0
C4000 0
C4001 0
C4002 0
C4003 0
C4004 0
C4005 0
C4006 0
C4007 0
C4008 0
C4009 0
C4010 0
C4011 0
C4012 0
C4013 0
C4014 0
C4015 0
C4016 0
C4017 0
C4018 0
C4019 0
C4020 0
C4021 0
C4022 0
C4023 0
C4024 0
C4025 0
C4026 0
C4027 0
C4028 0
C4029 0
C4030 0
C4031 0
C4032 0
C4033 0
C4034 0
C4035 0
C4036 0
C4037 0
C4038 0
C4039 0
C4040 0
C4041 0
C4042 0
C4043 0
C4044 0
C4045 0
C4046 0
C4047 0
C4048 0
C4049 0
C4050 0
C4051 0
C4052 0
C4053 0
C4054 0
C4055 0
C4056 0
C4057 0
C4058 0
C4059 0
C4060 0
C4061 0
C4062 0
C4063 0
C4064 0
C4065 0
C4066 0
C4067 0
C4068 0
C4069 0
C4070 0
C4071 0
C4072 0
C4073 0
C4074 0
C4075 0
C4076 0
C4077 0
C4078 1
C4079 0
C4080 0
C4081 0
C4082 0
C4083 0
C4084 0
C4085 0
C4086 0
C4087 0
C4088 0
C4089 0
C4090 0
C4091 0
C4092 0
C4093 0
C4094 0
C4095 0
C4096 0
C4097 0
C4098 0
C4099 0
C4100 0
C4101 0
C4102 0
C4103 0
C4104 0
C4105 0
C4106 0
C4107 0
C4108 0
C4109 0
C4110 0
C4111 0
C4112 0
C4113 0
C4114 0
C4115 0
C4116 0
C4117 0
C4118 0
C4119 0
C4120 0
C4121 0
C4122 0
C4123 0
C4124 0
C4125 0
C4126 0
C4127 0
C4128 0
C4129 0
C4130 0
C4131 0
C4132 0
C4133 0
C4134 0
C4135 0
C4136 0
C4137 0
C4138 0
C4139 0
C4140 0
C4141 0
C4142 0
C4143 0
C4144 0
C4145 0
C4146 0
C4147 0
C4148 0
C4149 0
C4150 0
C4151 0
C4152 0
C4153 0
C4154 0
C4155 0
C4156 0
C4157 0
C4158 0
C4159 0
C4160 0
C4161 0
C4162 0
C4163 0
C4164 0
C4165 0
C4166 0
C4167 0
C4168 0
C4169 0
C4170 0
C4171 0
C4172 0
C4173 0
C4174 0
C4175 0
C4176 0
C4177 0
C4178 0
C4179 0
C4180 0
C4181 0
C4182 0
C4183 0
C4184 0
C4185 0
C4186 0
C4187 0
C4188 0
C4189 0
C4190 0
C4191 0
C4192 0
C4193 0
C4194 0
C4195 0
C4196 0
C4197 0
C4198 0
C4199 0
C4200 0
C4201 0
C4202 0
C4203 0
C4204 0
C4205 0
C4206 0
C4207 0
C4208 0
C4209 0
C4210 0
C4211 0
C4212 0
C4213 0
C4214 0
C4215 0
C4216 0
C4217 0
C4218 0
C4219 0
C4220 0
C4221 1
C4222 1
C4223 0
C4224 0
C4225 0
C4226 0
C4227 0
C4228 0
C4229 0
C4230 0
C4231 0
C4232 0
C4233 0
C4234 0
C4235 0
C4236 0
C4237 0
C4238 0
C4239 0
C4240 0
C4241 0
C4242 0
C4243 0
C4244 0
C4245 0
C4246 0
C4247 0
C4248 0
C4249 0
C4250 0
C4251 0
C4252 1
C4253 0
C4254 0
C4255 0
C4256 0
C4257 0
C4258 0
C4259 0
C4260 0
C4261 0
C4262 0
C4263 0
C4264 0
C4265 0
C4266 0
C4267 0
C4268 0
C4269 0
C4270 0
C4271 0
C4272 0
C4273 0
C4274 0
C4275 0
C4276 0
C4277 0
C4278 0
C4279 0
C4280 0
C4281 0
C4282 0
C4283 0
C4284 0
C4285 0
C4286 0
C4287 0
C4288 0
C4289 0
C4290 0
C4291 0
C4292 0
C4293 1
C4294 0
C4295 0
C4296 0
C4297 0
C4298 0
C4299 0
C4300 0
C4301 0
C4302 0
C4303 0
C4304 0
C4305 0
C4306 0
C4307 0
C4308 0
C4309 0
C4310 0
C4311 0
C4312 0
C4313 0
C4314 0
C4315 0
C4316 0
C4317 0
C4318 0
C4319 0
C4320 0
C4321 0
C4322 0
C4323 0
C4324 0
C4325 0
C4326 0
C4327 0
C4328 0
C4329 0
C4330 0
C4331 0
C4332 0
C4333 0
C4334 0
C4335 0
C4336 0
C4337 0
C4338 0
C4339 0
C4340 0
C4341 0
C4342 0
C4343 0
C4344 0
C4345 0
C4346 0
C4347 1
C4348 0
C4349 0
C4350 0
C4351 0
C4352 0
C4353 0
C4354 0
C4355 0
C4356 0
C4357 0
C4358 0
C4359 0
C4360 0
C4361 0
C4362 0
C4363 0
C4364 0
C4365 0
C4366 0
C4367 0
C4368 0
C4369 0
C4370 0
C4371 0
C4372 0
C4373 1
C4374 0
C4375 0
C4376 0
C4377 0
C4378 0
C4379 0
C4380 0
C4381 0
C4382 0
C4383 0
C4384 0
C4385 0
C4386 0
C4387 0
C4388 0
C4389 0
C4390 0
C4391 0
C4392 0
C4393 0
C4394 0
C4395 0
C4396 0
C4397 0
C4398 0
C4399 0
C4400 0
C4401 0
C4402 0
C4403 0
C4404 0
C4405 0
C4406 0
C4407 0
C4408 0
C4409 0
C4410 0
C4411 0
C4412 0
C4413 0
C4414 0
C4415 0
C4416 0
C4417 0
C4418 0
C4419 0
C4420 1
C4421 0
C4422 0
C4423 0
C4424 0
C4425 1
C4426 0
C4427 0
C4428 0
C4429 0
C4430 0
C4431 0
C4432 0
C4433 0
C4434 0
C4435 0
C4436 0
C4437 0
C4438 0
C4439 0
C4440 0
C4441 0
C4442 0
C4443 0
C4444 0
C4445 0
C4446 0
C4447 0
C4448 0
C4449 0
C4450 0
C4451 0
C4452 0
C4453 0
C4454 0
C4455 0
C4456 0
C4457 0
C4458 0
C4459 0
C4460 0
C4461 0
C4462 0
C4463 0
C4464 0
C4465 0
C4466 0
C4467 0
C4468 0
C4469 0
C4470 0
C4471 0
C4472 0
C4473 0
C4474 0
C4475 0
C4476 0
C4477 0
C4478 0
C4479 0
C4480 0
C4481 0
C4482 0
C4483 0
C4484 0
C4485 0
C4486 0
C4487 0
C4488 0
C4489 0
C4490 0
C4491 0
C4492 0
C4493 0
C4494 0
C4495 0
C4496 0
C4497 0
C4498 0
C4499 0
C4500 0
C4501 0
C4502 0
C4503 0
C4504 0
C4505 0
C4506 0
C4507 0
C4508 0
C4509 0
C4510 0
C4511 0
C4512 0
C4513 0
C4514 0
C4515 0
C4516 0
C4517 0
C4518 0
C4519 0
C4520 0
C4521 0
C4522 0
C4523 0
C4524 0
C4525 0
C4526 0
C4527 0
C4528 0
C4529 0
C4530 0
C4531 0
C4532 0
C4533 1
C4534 0
C4535 0
C4536 0
C4537 0
C4538 0
C4539 0
C4540 0
C4541 0
C4542 0
C4543 0
C4544 0
C4545 0
C4546 0
C4547 0
C4548 0
C4549 0
C4550 0
C4551 0
C4552 0
C4553 0
C4554 0
C4555 0
C4556 0
C4557 0
C4558 0
C4559 0
C4560 0
C4561 0
C4562 0
C4563 0
C4564 0
C4565 0
C4566 0
C4567 0
C4568 0
C4569 0
C4570 0
C4571 0
C4572 0
C4573 0
C4574 0
C4575 0
C4576 0
C4577 0
C4578 0
C4579 0
C4580 0
C4581 0
C4582 0
C4583 0
C4584 0
C4585 0
C4586 0
C4587 0
C4588 0
C4589 0
C4590 0
C4591 0
C4592 0
C4593 0
C4594 0
C4595 0
C4596 0
C4597 0
C4598 0
C4599 0
C4600 0
C4601 0
C4602 0
C4603 0
C4604 0
C4605 0
C4606 0
C4607 0
C4608 0
C4609 0
C4610 0
C4611 0
C4612 0
C4613 0
C4614 0
C4615 0
C4616 0
C4617 0
C4618 0
C4619 0
C4620 0
C4621 0
C4622 0
C4623 0
C4624 0
C4625 0
C4626 0
C4627 0
C4628 0
C4629 0
C4630 0
C4631 0
C4632 0
C4633 0
C4634 0
C4635 0
C4636 0
C4637 0
C4638 0
C4639 0
C4640 0
C4641 0
C4642 0
C4643 0
C4644 1
C4645 1
C4646 0
C4647 0
C4648 0
C4649 0
C4650 0
C4651 0
C4652 0
C4653 0
C4654 0
C4655 0
C4656 0
C4657 0
C4658 0
C4659 0
C4660 0
C4661 0
C4662 0
C4663 0
C4664 0
C4665 0
C4666 0
C4667 0
C4668 0
C4669 0
C4670 0
C4671 0
C4672 0
C4673 0
C4674 0
C4675 0
C4676 0
C4677 0
C4678 0
C4679 0
C4680 0
C4681 0
C4682 0
C4683 0
C4684 0
C4685 0
C4686 0
C4687 0
C4688 0
C4689 0
C4690 0
C4691 0
C4692 0
C4693 0
C4694 0
C4695 0
C4696 0
C4697 0
C4698 0
C4699 0
C4700 0
C4701 0
C4702 0
C4703 0
C4704 0
C4705 0
C4706 0
C4707 0
C4708 0
C4709 0
C4710 0
C4711 0
C4712 0
C4713 0
C4714 0
C4715 0
C4716 0
C4717 0
C4718 0
C4719 0
C4720 0
C4721 0
C4722 0
C4723 0
C4724 0
C4725 0
C4726 0
C4727 0
C4728 0
C4729 0
C4730 0
C4731 0
C4732 0
C4733 0
C4734 0
C4735 0
C4736 0
C4737 0
C4738 0
C4739 0
C4740 0
C4741 0
C4742 0
C4743 0
C4744 0
C4745 0
C4746 0
C4747 0
C4748 0
C4749 0
C4750 1
C4751 0
C4752 0
C4753 0
C4754 0
C4755 0
C4756 0
C4757 0
C4758 0
C4759 0
C4760 0
C4761 0
C4762 0
C4763 0
C4764 0
C4765 0
C4766 0
C4767 0
C4768 0
C4769 0
C4770 0
C4771 0
C4772 0
C4773 0
C4774 0
C4775 0
C4776 0
C4777 0
C4778 0
C4779 0
C4780 0
C4781 0
C4782 0
C4783 0
C4784 0
C4785 0
C4786 0
C4787 0
C4788 0
C4789 0
C4790 0
C4791 0
C4792 0
C4793 0
C4794 0
C4795 0
C4796 0
C4797 1
C4798 0
C4799 0
C4800 0
C4801 0
C4802 0
C4803 0
C4804 0
C4805 0
C4806 0
C4807 0
C4808 0
C4809 0
C4810 0
C4811 0
C4812 0
C4813 0
C4814 0
C4815 0
C4816 0
C4817 0
C4818 0
C4819 0
C4820 0
C4821 0
C4822 0
C4823 0
C4824 0
C4825 0
C4826 0
C4827 0
C4828 0
C4829 0
C4830 0
C4831 0
C4832 0
C4833 0
C4834 0
C4835 0
C4836 0
C4837 0
C4838 0
C4839 0
C4840 0
C4841 0
C4842 0
C4843 0
C4844 0
C4845 0
C4846 0
C4847 0
C4848 0
C4849 0
C4850 0
C4851 0
C4852 0
C4853 0
C4854 0
C4855 0
C4856 0
C4857 0
C4858 0
C4859 0
C4860 0
C4861 0
C4862 0
C4863 0
C4864 0
C4865 0
C4866 0
C4867 0
C4868 0
C4869 0
C4870 0
C4871 0
C4872 0
C4873 0
C4874 0
C4875 0
C4876 0
C4877 0
C4878 0
C4879 0
C4880 0
C4881 0
C4882 0
C4883 0
C4884 0
C4885 0
C4886 0
C4887 0
C4888 0
C4889 0
C4890 0
C4891 0
C4892 0
C4893 0
C4894 0
C4895 0
C4896 0
C4897 0
C4898 0
C4899 0
C4900 0
C4901 0
C4902 0
C4903 0
C4904 0
C4905 0
C4906 0
C4907 0
C4908 0
C4909 0
C4910 0
C4911 0
C4912 0
C4913 0
C4914 0
C4915 0
C4916 0
C4917 0
C4918 0
C4919 0
C4920 0
C4921 0
C4922 0
C4923 0
C4924 0
C4925 0
C4926 0
C4927 0
C4928 0
C4929 0
C4930 0
C4931 0
C4932 0
C4933 0
C4934 0
C4935 1
C4936 0
C4937 0
C4938 0
C4939 0
C4940 0
C4941 0
C4942 0
C4943 0
C4944 0
C4945 0
C4946 0
C4947 0
C4948 0
C4949 0
C4950 0
C4951 0
C4952 0
C4953 0
C4954 0
C4955 0
C4956 0
C4957 0
C4958 0
C4959 0
C4960 0
C4961 0
C4962 0
C4963 0
C4964 0
C4965 0
C4966 0
C4967 0
C4968 1
C4969 0
C4970 0
C4971 0
C4972 0
C4973 0
C4974 0
C4975 0
C4976 0
C4977 0
C4978 0
C4979 0
C4980 0
C4981 0
C4982 0
C4983 0
C4984 0
C4985 0
C4986 0
C4987 0
C4988 0
C4989 0
C4990 0
C4991 0
C4992 0
C4993 0
C4994 0
C4995 0
C4996 0
C4997 0
C4998 0
C4999 0
C5000 0
C5001 0
C5002 0
C5003 0
C5004 0
C5005 0
C5006 0
C5007 0
C5008 0
C5009 0
C5010 0
C5011 0
C5012 0
C5013 1
C5014 0
C5015 0
C5016 0
C5017 0
C5018 0
C5019 0
C5020 0
C5021 0
C5022 0
C5023 0
C5024 0
C5025 0
C5026 0
C5027 1
C5028 0
C5029 1
C5030 0
C5031 0
C5032 0
C5033 0
C5034 0
C5035 0
C5036 1
C5037 0
C5038 0
C5039 0
C5040 0
C5041 0
C5042 1
C5043 0
C5044 0
C5045 0
C5046 0
C5047 0
C5048 1
C5049 0
